proyfinal/src/viki/013/experimentInOfficeAgust.take6.output/1837664e-90c2-49b9-b4ee-8ed7e92dc0a8.als.dat
{'cnf.clauses': '118081',
 'cnf.totvars': '69608',
 'conflict literals': '17',
 'conflicts': '11',
 'decisions': '10427',
 'memused.mb': '16.82',
 'outcome': 'UNSAT',
 'propagations': '41931',
 'restarts': '1',
 'solver.msecs': 27,
 'task.msecs': 135}
