proyfinal/src/viki/013/experimentInOfficeAgust.take6.output/1837664e-90c2-49b9-b4ee-8ed7e92dc0a8.als.out
Reading from standard input... Use '--help' for help.
============================[ Problem Statistics ]=============================
|                                                                             |
|  Number of variables:         69608                                         |
|  Number of clauses:          118081                                         |
|  Parse time:                   0.02 s                                       |
|                                                                             |
============================[ Search Statistics ]==============================
| Conflicts |          ORIGINAL         |          LEARNT          | Progress |
|           |    Vars  Clauses Literals |    Limit  Clauses Lit/Cl |          |
===============================================================================
===============================================================================
restarts              : 1
conflicts             : 11             (406 /sec)
decisions             : 10427          (0.00 % random) (384959 /sec)
propagations          : 41931          (1548069 /sec)
conflict literals     : 17             (0.00 % deleted)
Memory used           : 16.82 MB
CPU time              : 0.027086 s

UNSATISFIABLE
